sat

(objectives
 ((bvadd PriceProv8 (bvadd PriceProv7 (bvadd PriceProv6 (bvadd PriceProv5 (bvadd PriceProv4 (bvadd PriceProv3 (bvadd PriceProv1 PriceProv2))))))) (_ bv1424 32))
)
;; statistics
(
 :cnf-variables 2319
 :cnf-literals 10080
 :cnf-clauses 4295
 :sat-checks 12
 :sat-restarts 47
 :sat-decisions 103901
 :sat-random-decisions 46
 :sat-propagations 165341827
 :sat-theory-propagations 0
 :sat-watched-clauses-visited 214046631
 :sat-binary-watched-clauses-visited 114504290
 :sat-conflicts 34136
 :sat-theory-conflicts 0
 :theory-necessary-interface-equalities 0
 :theory-extra-interface-equalities 0
 :euf-total-calls 111834
 :euf-complete-calls 16
 :euf-conflicts 0
 :euf-implications 0
 :euf-explanations 0
 :euf-egraph-nodes-created 47464
 :euf-egraph-nodes-deleted 43298
 :euf-num-asserted-equalities 2056158
 :euf-num-asserted-inequalities 1371748
 :euf-num-merges 4059415
 :euf-num-merges-undone 4059415
 :euf-num-atoms-retold 10176
 :la-total-calls 111834
 :la-complete-calls 16
 :la-conflicts 0
 :la-implications 0
 :la-explanations 0
 :la-num-equalities-split 0
 :la-num-tableau-rows 0
 :la-num-tableau-variables 0
 :bv-total-calls 111834
 :bv-complete-calls 16
 :bv-conflicts 0
 :bv-implications 0
 :bv-explanations 0
 :fp-total-calls 111834
 :fp-complete-calls 16
 :fp-conflicts 0
 :fp-implications 0
 :fp-explanations 0
 :arr-total-calls 111834
 :arr-complete-calls 16
 :arr-conflicts 0
 :arr-implications 0
 :arr-explanations 0
 :arr-write-lemmas-added 0
 :arr-row-lemmas-added 0
 :arr-ext-lemmas-added 0
 :arr-const-lemmas-added 0
 :na-total-calls 111834
 :na-complete-calls 16
 :na-conflicts 0
 :na-implications 0
 :na-explanations 0
 :na-num_nonlinear_multiplications 0
 :na-num_axiom_checks 0
 :na-num_zero_lemmas 0
 :na-num_sign_lemmas 0
 :na-num_neutral_lemmas 0
 :na-num_proportionality_lemmas 0
 :na-num_bound_lemmas 0
 :na-num_tangent_lemmas 0
 :na-num_monotonicity_lemmas 0
 :na-num_sat_checks 0
 :na-axiom_check_time 0.000
 :na-sat_check_time 0.000
 :time-seconds 31.693
 :memory-mb 87.743
)
